
se = 80; % nombre de sessions
gr = 40; % nombre de grups de treball
cl = 12; % nombre de slots
minPapersPerSlot = 3; % minim nombre d'articles per sessio i slot
maxSesionsPar = 20; % maxim nombre de sessions paraleles

npMax = [3, 6, 3, 6, 5, 5, 5, 4, 6, 6, 3, 4]; % nombre maxim de papers per slot

np = [11, 13, 13, 6, 3, 8, 18, 4, 15, 3, 4, 10, 14, 7, 16, 4, 12, 18, 4, 3, 15, 17, 11, 17, 3, 5, 10, 16, 15, 16, 11, 3, 5, 6, 14, 3, 3, 10, 18, 15, 17, 5, 7, 7, 7, 13, 16, 3, 13, 10, 3, 8, 14, 15, 9, 13, 4, 9, 6, 3, 14, 18, 10, 3, 16, 3, 17, 12, 9, 3, 13, 8, 7, 9, 6, 7, 11, 3, 19, 15]; % nombre de papers acceptats a cada sessio

WG = [ {1}, {2}, {}, {3,4,5}, {6}, {7,8}, {}, {9}, {}, {}, {}, {10,11,12}, {}, {13,14}, {15,16,17}, {}, {18,19}, {}, {20}, {}, {21}, {22}, {23}, {}, {24}, {25,26,27}, {}, {28}, {29}, {}, {30}, {31}, {}, {32}, {33,34}, {}, {35}, {36,37}, {}, {}, {38,39}, {40}, {1}, {}, {2}, {3}, {4}, {5,6}, {7}, {8,9}, {10}, {11}, {12}, {}, {13}, {14,15}, {16,17}, {18}, {19}, {20,21}, {22}, {23,24,25}, {26}, {27}, {28}, {29,30}, {31}, {}, {32}, {33}, {34,35}, {36}, {}, {37}, {38}, {39}, {}, {40,1,2}, {}, {3,4,5} ]; % grups per sessio

